c b=4,c=1073
p cnf 18 54
4 -8 0
1 3 4 -12 0
2 4 -13 0
4 -18 0
-4 8 0
1 3 -4 12 0
1 3 -4 13 0
-4 18 0
3 -7 0
2 3 -11 0
1 3 -14 0
3 -17 0
2 -3 4 12 0
4 -14 0
2 -3 -4 -12 0
-3 -4 14 0
-3 7 0
2 -3 11 0
2 -3 -13 0
-3 17 0
2 -6 0
1 2 -10 0
2 -16 0
1 -2 4 -12 0
3 4 -13 0
1 -2 -4 12 0
1 -2 3 11 0
-2 -3 4 13 0
-3 -4 -13 0
1 -2 -3 -11 0
-2 6 0
1 -2 10 0
-2 16 0
1 -5 0
1 -9 0
1 -15 0
2 3 4 -12 0
2 3 -4 12 0
2 3 -4 13 0
-1 3 -11 0
2 3 -14 0
-1 -3 11 0
-1 2 10 0
-1 -2 3 4 12 0
-1 -2 3 -4 -12 0
-1 -2 -4 14 0
-1 -2 3 -13 0
-2 -3 4 -12 0
-2 -3 -4 12 0
-1 -2 -4 -13 0
-1 -2 -10 0
-1 5 0
-1 9 0
-1 15 0
